p cnf 10 50
-7 -2 8 0
-1 -2 4 0
2 8 5 0
6 -1 -9 0
10 -9 1 0
1 -3 9 0
-1 -9 8 0
-7 -2 3 0
-10 9 2 0
6 2 5 0
-8 -9 -5 0
9 4 -5 0
8 1 -10 0
3 7 -5 0
-9 10 2 0
10 -3 -9 0
-8 -1 9 0
-7 -3 9 0
9 5 -6 0
-5 4 -10 0
-5 -7 -3 0
-10 2 -5 0
6 -7 10 0
-1 9 10 0
5 -6 10 0
8 5 7 0
9 -6 -4 0
8 4 2 0
-8 3 -2 0
4 3 -2 0
-10 -7 -1 0
5 4 -9 0
4 -9 2 0
8 3 2 0
-6 -5 -3 0
-8 3 -7 0
1 2 -10 0
1 -2 5 0
10 -9 8 0
4 6 3 0
-6 1 -9 0
2 9 5 0
-8 4 2 0
10 2 -7 0
-6 -5 -8 0
8 -4 10 0
5 -9 -7 0
-2 -5 4 0
10 -6 -1 0
-9 10 1 0